letting initialStacks = [23, 48, 24, 30, 9, 49, 29, 47, 44, 5, 11, 43, 4, 33, 16, 31, 42, 3, 34, 46, 25, 37, 41, 6, 17, 36, 12, 22, 19, 7, 45, 38, 21, 20, 14, 15, 1, 10, 35, 13, 28, 39, 50, 51, 40, 27, 32, 26, 2, 18, 8]
